3 3 2
20 2 40 1 30 2 42 0 37 1 15 2 29 1 5 0 34 2 16 0 13 2 40 1 26 0 18 2 49 1 15 0 2 2 33 1 46 2 32 1 35 
20 0 24 2 21 1 31 0 20 2 5 1 32 0 41 1 45 2 12 1 43 0 40 1 7 0 3 2 32 0 5 2 37 1 25 0 46 2 11 0 36 
20 2 4 0 38 2 35 0 15 2 25 1 14 0 4 1 19 2 25 1 5 0 37 2 18 0 28 1 21 0 40 1 1 0 13 2 7 1 3 2 41 

-------------
